% number of games is 39

num = 39;
cap = 5;
refill = 2;
fun = [-20, -15, 17, 4, 4, 15, 3, -6, -6, -16, -5, -14, -16, -12, 17, -1, -14, -4, 0, -10, 20, 19, 16, -8, -19, -11, 1, 18, 0, 20, 17, -3, -14, 18, 10, 16, -16, -16, -15];
